%mem=64gb
%nproc=8
#P TD(Nstates=10000) wB97XD/Gen  SCF(maxcycles=100)  Int(Grid=ultrafine)

xGDB7_00001_tier4.com

0 1
9 0.00000000 0.00000000 0.68819300
9 0.00000000 0.00000000 -0.68819300

F     0
S    6   1.00
  35479.1004410              0.21545014888D-03
   5318.4728983              0.16700686527D-02
   1210.4810975              0.86733211476D-02
    342.85518140             0.35049933175D-01
    112.01943181             0.11165320133
     40.714740248            0.25988506647
S    2   1.00
     16.039678111            0.39422966880
      6.5038186740           0.24998238551
S    1   1.00
      1.5440477509           1.0000000
S    1   1.00
      0.61223452862          1.0000000
S    1   1.00
      0.24027979698          1.0000000
S    1   1.00
      0.90918446478D-01      1.0000000
P    4   1.00
     80.233900483            0.63685999134D-02
     18.594010743            0.44303143530D-01
      5.6867902653           0.16867248708
      1.9511006294           0.36166346255
P    1   1.00
      0.66970211298           .44202901491
P    1   1.00
      0.21651300410           .24319875730
P    1   1.00
      0.59613282472D-01      1.0000000
D    1   1.00
      3.10700000             1.0000000
D    1   1.00
      0.85500000             1.0000000
D    1   1.00
      0.18608388111          1.0000000
F    1   1.00
      1.91700000             1.0000000
****


