%mem=8gb
%nproc=8
#P TD(Nstates=10000) wB97XD/def2SVP  SCF(maxcycles=100)  Int(Grid=ultrafine)

xGDB7_00001_tier4.com

0 1
6 0.04639900 0.64966100 0.00000000
8 0.04639900 -0.74970500 0.00000000
1 -0.43926100 1.08427600 0.89496200
1 -0.43926100 1.08427600 -0.89496200
1 1.09383500 0.98360700 0.00000000
1 -0.86490300 -1.05248700 0.00000000





