%mem=8gb
%nproc=8
#P TD(Nstates=10000) wB97XD/def2SVP  SCF(maxcycles=100)  Int(Grid=ultrafine)

xGDB7_00001_tier4.com

0 1
7 -0.00000100 0.00000100 0.11978000
1 0.49985000 0.79373200 -0.27948800
1 0.43748300 -0.82974200 -0.27948900
1 -0.93732900 0.03600400 -0.27948100





