%mem=8gb
%nproc=8
#P TD(Nstates=10000) wB97XD/def2SVP  SCF(maxcycles=100)  Int(Grid=ultrafine)

xGDB7_00001_tier4.com

0 1
7 1.11289100 -0.17640500 -0.04523500
6 -0.12247800 0.41799000 0.00112500
7 -1.27401100 -0.12089800 0.00726700
1 1.93538400 0.37353600 0.15645500
1 1.19315300 -1.17489800 0.09790300
1 -0.06239600 1.51867600 0.00352700
1 -1.20343500 -1.14413300 0.00113700





