%mem=8gb
%nproc=8
#P TD(Nstates=10000) wB97XD/def2SVP  SCF(maxcycles=100)  Int(Grid=ultrafine)

xGDB7_00001_tier4.com

0 1
7 1.10361800 0.13989100 -0.08321700
7 -0.07258800 -0.50626500 0.00486400
6 -1.15536900 0.16272400 0.00819300
1 1.87531000 -0.41150000 0.26991200
1 1.12489900 1.11615800 0.21607700
1 -2.10170700 -0.38332400 0.03409800
1 -1.18349900 1.26693700 -0.02076700





