%mem=8gb
%nproc=8
#P TD(Nstates=10000) wB97XD/def2SVP  SCF(maxcycles=100)  Int(Grid=ultrafine)

xGDB7_00001_tier4.com

0 1
6 1.24240300 -0.00000200 0.00000200
6 -0.21716000 0.00000700 -0.00001700
6 -1.42567200 0.00000000 0.00000100
1 1.63400800 0.90155300 -0.49394400
1 1.63399400 -0.87857300 -0.53376600
1 1.63396200 -0.02299700 1.02776300
1 -2.49939000 -0.00001600 0.00002900





