%mem=8gb
%nproc=8
#P TD(Nstates=10000) wB97XD/def2SVP  SCF(maxcycles=100)  Int(Grid=ultrafine)

xGDB7_00001_tier4.com

0 1
6 -0.00000000 0.73241800 -0.36220200
6 -0.00000000 -0.73241800 -0.36220200
8 0.00000000 0.00000000 0.83928900
1 -0.92561300 1.27499600 -0.59197400
1 0.92561300 1.27499600 -0.59197400
1 0.92561300 -1.27499600 -0.59197400
1 -0.92561300 -1.27499600 -0.59197400





