%mem=8gb
%nproc=8
#P TD(Nstates=10000) wB97XD/def2SVP  SCF(maxcycles=100)  Int(Grid=ultrafine)

xGDB7_00001_tier4.com

0 1
6 -0.05026300 0.69689700 -0.00000000
7 -0.05026300 -0.75398800 0.00000000
1 0.94819400 1.18082200 -0.00000000
1 -0.59351700 1.06854000 0.88262800
1 -0.59351700 1.06854000 -0.88262800
1 0.44613000 -1.11068300 0.81346300
1 0.44613000 -1.11068300 -0.81346300





