%mem=8gb
%nproc=8
#P TD(Nstates=10000) wB97XD/def2SVP  SCF(maxcycles=100)  Int(Grid=ultrafine)

xGDB7_00001_tier4.com

0 1
8 0.00000000 -0.00000000 0.11910600
1 0.00000000 0.75493000 -0.47642400
1 -0.00000000 -0.75493000 -0.47642400





