%mem=8gb
%nproc=8
#P TD(Nstates=10000) wB97XD/def2SVP  SCF(maxcycles=100)  Int(Grid=ultrafine)

xGDB7_00001_tier4.com

0 1
7 -1.08165400 -0.15660300 0.00000400
6 0.16379500 0.38335400 0.00000200
8 1.19287800 -0.24522800 -0.00000100
1 -1.90918800 0.42173700 -0.00001200
1 -1.18248400 -1.16422500 -0.00001100
1 0.13745400 1.50041200 -0.00000600





