%mem=8gb
%nproc=8
#P TD(Nstates=10000) wB97XD/def2SVP  SCF(maxcycles=100)  Int(Grid=ultrafine)

xGDB7_00001_tier4.com

0 1
6 -0.02604700 -0.21714300 1.20987600
7 -0.02604700 0.57077200 0.00000000
6 -0.02604700 -0.21714300 -1.20987600
1 0.01373500 0.44062100 2.09083200
1 0.81354500 -0.94366100 1.28614900
1 -0.96136800 -0.79717200 1.27799100
1 0.76306700 1.21073500 0.00000000
1 -0.96136800 -0.79717200 -1.27799100
1 0.81354500 -0.94366100 -1.28614900
1 0.01373500 0.44062100 -2.09083200





