%mem=8gb
%nproc=8
#P TD(Nstates=10000) wB97XD/def2SVP  SCF(maxcycles=100)  Int(Grid=ultrafine)

xGDB7_00001_tier4.com

0 1
6 -0.00000000 -0.00000000 -0.52316900
8 0.00000000 0.00000000 0.67308200
1 0.00000000 0.94374700 -1.12282000
1 -0.00000000 -0.94374700 -1.12282000





