%mem=8gb
%nproc=8
#P TD(Nstates=10000) wB97XD/def2SVP  SCF(maxcycles=100)  Int(Grid=ultrafine)

xGDB7_00001_tier4.com

0 1
9 0.00000000 1.09652900 -0.28750300
6 -0.00000000 -0.00000000 0.49227300
9 -0.00000000 -1.09652900 -0.28750300
1 -0.91338400 0.00000000 1.11070800
1 0.91338400 -0.00000000 1.11070800





