%mem=8gb
%nproc=8
#P TD(Nstates=10000) wB97XD/def2TZVP  SCF(maxcycles=100)  Int(Grid=ultrafine)

xGDB7_00001_tier4.com

0 1
7 -1.07847100 -0.15690000 0.00000100
6 0.16196300 0.38494400 0.00000200
8 1.18917000 -0.24545800 -0.00000100
1 -1.89842700 0.41942700 -0.00000400
1 -1.17812400 -1.15707300 -0.00000500
1 0.14070600 1.48994800 -0.00000700





