%mem=8gb
%nproc=8
#P TD(Nstates=10000) wB97XD/def2TZVP  SCF(maxcycles=100)  Int(Grid=ultrafine)

xGDB7_00001_tier4.com

0 1
8 -1.02862100 -0.39517700 -0.00000000
7 0.00000000 0.52622800 0.00000000
6 1.13274600 -0.03090700 0.00000000
1 -1.81657200 0.15179100 -0.00000000
1 1.99426200 0.62343900 0.00000000
1 1.25480200 -1.11196500 0.00000000





