%mem=8gb
%nproc=8
#P TD(Nstates=10000) wB97XD/def2TZVP  SCF(maxcycles=100)  Int(Grid=ultrafine)

xGDB7_00001_tier4.com

0 1
7 1.10644100 0.14251300 -0.09098200
7 -0.08075300 -0.51252000 0.00606600
6 -1.14869600 0.16745600 0.00816600
1 1.85474900 -0.40991600 0.29153300
1 1.10967700 1.10045300 0.24271300
1 -2.08985100 -0.36619900 0.03524900
1 -1.16220800 1.26097400 -0.02408000





