%mem=8gb
%nproc=8
#P TD(Nstates=10000) wB97XD/def2TZVP  SCF(maxcycles=100)  Int(Grid=ultrafine)

xGDB7_00001_tier4.com

0 1
7 0.00000200 -0.00000000 0.11046300
1 0.15411100 0.92909200 -0.25775800
1 0.72756300 -0.59801100 -0.25775700
1 -0.88168700 -0.33107800 -0.25772800





