%mem=8gb
%nproc=8
#P TD(Nstates=10000) wB97XD/def2TZVP  SCF(maxcycles=100)  Int(Grid=ultrafine)

xGDB7_00001_tier4.com

0 1
6 -1.24079100 -0.23762400 -0.02752500
6 0.04894600 0.55920500 0.05370900
7 1.20234200 -0.31760600 -0.11670300
1 -2.10981700 0.41582800 0.06470300
1 -1.29292900 -0.97620900 0.77680900
1 -1.30032900 -0.76988400 -0.97774600
1 0.06630600 1.12281800 0.99796700
1 0.06995700 1.29657400 -0.75259200
1 1.23640800 -1.00308200 0.62715900
1 2.06508000 0.20771000 -0.07648300





