%mem=8gb
%nproc=8
#P TD(Nstates=10000) wB97XD/def2TZVP  SCF(maxcycles=100)  Int(Grid=ultrafine)

xGDB7_00001_tier4.com

0 1
6 0.00000000 1.16389400 -0.19313600
8 -0.00000000 0.00000000 0.58544900
6 -0.00000000 -1.16389400 -0.19313600
1 0.00000000 2.01547800 0.48582700
1 -0.89039000 1.21920400 -0.83440400
1 0.89039000 1.21920400 -0.83440400
1 -0.00000000 -2.01547800 0.48582700
1 0.89039000 -1.21920400 -0.83440400
1 -0.89039000 -1.21920400 -0.83440400





