%mem=8gb
%nproc=8
#P TD(Nstates=10000) wB97XD/def2TZVP  SCF(maxcycles=100)  Int(Grid=ultrafine)

xGDB7_00001_tier4.com

0 1
9 -0.00000000 1.09881300 -0.28912000
6 0.00000000 -0.00000000 0.49994400
9 -0.00000000 -1.09881300 -0.28912000
1 -0.91134600 0.00000000 1.10224600
1 0.91134600 -0.00000000 1.10224600





