%mem=8gb
%nproc=8
#P TD(Nstates=10000) wB97XD/def2TZVP  SCF(maxcycles=100)  Int(Grid=ultrafine)

xGDB7_00001_tier4.com

0 1
6 0.04641900 0.65843200 0.00000000
8 0.04641900 -0.75192900 0.00000000
1 -0.43890500 1.07326100 0.89079700
1 -0.43890500 1.07326100 -0.89079700
1 1.08785500 0.97757100 0.00000000
1 -0.85991100 -1.05925100 0.00000000





