%mem=8gb
%nproc=8
#P TD(Nstates=10000) wB97XD/def2TZVP  SCF(maxcycles=100)  Int(Grid=ultrafine)

xGDB7_00001_tier4.com

0 1
6 0.00000000 0.00000000 -1.17365300
6 0.00000000 0.00000000 0.28098900
7 0.00000000 0.00000000 1.42744200
1 0.00000000 1.02408800 -1.54537100
1 -0.88688600 -0.51204400 -1.54537100
1 0.88688600 -0.51204400 -1.54537100





